NAME          COPTPROB
OBJSENSE
  MIN
ROWS
 N  __OBJ___
 L  C1      
 L  C2      
 L  C4      
 L  C8      
 L  C12     
 L  C13     
 L  C15     
 L  C17     
 L  C23     
 L  C26     
 L  C28     
 L  C32     
 L  C34     
 L  C35     
 L  C38     
 L  C39     
 L  C40     
 L  C42     
 L  C44     
 L  C46     
 L  C48     
 L  C50     
 L  C52     
 L  C53     
 L  C57     
 L  C60     
 L  C61     
 L  C63     
 L  C69     
 L  C70     
 L  C71     
 L  C72     
 L  C73     
 L  C75     
 L  C76     
 L  C82     
 L  C83     
 L  C84     
 L  C85     
 L  C87     
 L  C89     
 L  C91     
 L  C93     
 L  C94     
 L  C95     
 L  C99     
 L  C100    
 L  C107    
 L  C108    
 L  C110    
 L  C112    
 L  C113    
 L  C114    
 L  C116    
 L  C119    
 L  C121    
 L  C122    
 L  C124    
 L  C126    
 L  C127    
 L  C130    
 L  C132    
 L  C133    
 L  C135    
 L  C138    
 L  C143    
 L  C146    
 L  C149    
 L  C150    
 L  C151    
 L  C152    
 L  C154    
 L  C155    
 L  C158    
 L  C161    
 L  C163    
 L  C165    
 L  C166    
 L  C167    
 L  C170    
 L  C171    
 L  C175    
 L  C177    
 L  C181    
 L  C185    
 L  C191    
 L  C201    
 L  C202    
 L  C204    
 L  C208    
 L  C209    
 L  C210    
 L  C211    
 L  C216    
 L  C217    
 L  C219    
 L  C220    
 L  C222    
 L  C224    
 L  C227    
 L  C228    
 L  C229    
 L  C231    
 L  C232    
 L  C233    
 L  C234    
 L  C235    
 L  C236    
 L  C238    
 L  C239    
 L  C241    
 L  C242    
 L  C243    
 L  C244    
 L  C246    
 L  C248    
 L  C249    
 L  C251    
 L  C252    
 L  C254    
 L  C255    
 L  C256    
 L  C258    
 L  C259    
 L  C260    
 L  C264    
 L  C265    
 L  C266    
 L  C267    
 L  C268    
 L  C269    
 L  C270    
 L  C271    
 L  C273    
 L  C274    
 L  C275    
 L  C277    
 L  C278    
 L  C282    
 L  C283    
 L  C285    
 L  C287    
 L  C288    
 L  C289    
 L  C290    
 L  C294    
 L  C296    
 L  C297    
 L  C302    
 L  C303    
 L  C306    
 L  C312    
 L  C318    
 L  C319    
 L  C323    
 L  C328    
 L  C330    
 L  C333    
 L  C335    
 L  C337    
 L  C339    
 L  C341    
 L  C342    
 L  C343    
 L  C345    
 L  C346    
 L  C347    
 L  C349    
 L  C351    
 L  C354    
 L  C358    
 L  C359    
 L  C363    
 L  C365    
 L  C366    
 L  C368    
 L  C371    
 L  C374    
 L  C375    
 L  C376    
 L  C379    
 L  C381    
 L  C382    
 L  C390    
 L  C391    
 L  C395    
 L  C396    
 L  C397    
 L  C398    
 L  C399    
COLUMNS
    MARKER    'MARKER'                 'INTORG'
    x3        __OBJ___  455
    x3        C177      -1
    x3        C375      -1
    x5        __OBJ___  945
    x5        C76       -1
    x5        C82       -1
    x5        C133      -1
    x5        C151      -1
    x5        C265      -1
    x7        __OBJ___  235
    x7        C113      -1
    x7        C152      -1
    x7        C235      -1
    x7        C255      -1
    x10       __OBJ___  256
    x10       C61       -1
    x10       C175      -1
    x10       C333      -1
    x10       C368      -1
    x11       __OBJ___  921
    x11       C119      -1
    x11       C130      -1
    x11       C243      -1
    x11       C252      -1
    x12       __OBJ___  530
    x12       C50       -1
    x12       C63       -1
    x12       C229      -1
    x14       __OBJ___  274
    x14       C2        -1
    x14       C4        -1
    x14       C242      -1
    x15       __OBJ___  174
    x15       C100      -1
    x15       C241      -1
    x15       C282      -1
    x17       __OBJ___  146
    x17       C126      -1
    x17       C354      -1
    x17       C381      -1
    x19       __OBJ___  359
    x19       C17       -1
    x19       C297      -1
    x21       __OBJ___  352
    x21       C42       -1
    x21       C124      -1
    x24       __OBJ___  745
    x24       C44       -1
    x24       C89       -1
    x24       C94       -1
    x24       C349      -1
    x24       C351      -1
    x25       __OBJ___  48
    x25       C1        -1
    x25       C39       -1
    x25       C319      -1
    x25       C376      -1
    x26       __OBJ___  194
    x26       C217      -1
    x26       C224      -1
    x26       C323      -1
    x26       C330      -1
    x28       __OBJ___  886
    x28       C12       -1
    x28       C70       -1
    x28       C201      -1
    x28       C371      -1
    x28       C391      -1
    x30       __OBJ___  318
    x30       C93       -1
    x30       C228      -1
    x30       C328      -1
    x30       C395      -1
    x33       __OBJ___  736
    x33       C232      -1
    x33       C270      -1
    x33       C289      -1
    x33       C366      -1
    x34       __OBJ___  818
    x34       C69       -1
    x34       C185      -1
    x34       C222      -1
    x35       __OBJ___  586
    x35       C121      -1
    x35       C219      -1
    x35       C269      -1
    x35       C273      -1
    x35       C275      -1
    x36       __OBJ___  847
    x36       C32       -1
    x36       C48       -1
    x36       C249      -1
    x36       C290      -1
    x38       __OBJ___  530
    x38       C26       -1
    x38       C231      -1
    x38       C259      -1
    x38       C358      -1
    x39       __OBJ___  490
    x39       C57       -1
    x39       C143      -1
    x39       C294      -1
    x39       C339      -1
    x40       __OBJ___  713
    x40       C122      -1
    x40       C251      -1
    x40       C399      -1
    x42       __OBJ___  266
    x42       C13       -1
    x42       C277      -1
    x43       __OBJ___  819
    x43       C149      -1
    x43       C260      -1
    x44       __OBJ___  574
    x44       C167      -1
    x44       C244      -1
    x48       __OBJ___  374
    x48       C135      -1
    x48       C204      -1
    x48       C208      -1
    x48       C267      -1
    x48       C318      -1
    x49       __OBJ___  430
    x49       C150      -1
    x49       C234      -1
    x50       __OBJ___  665
    x50       C60       -1
    x50       C166      -1
    x50       C254      -1
    x50       C271      -1
    x51       __OBJ___  729
    x51       C73       -1
    x51       C75       -1
    x51       C211      -1
    x51       C342      -1
    x51       C379      -1
    x52       __OBJ___  937
    x52       C28       -1
    x52       C72       -1
    x52       C343      -1
    x52       C374      -1
    x57       __OBJ___  811
    x57       C52       -1
    x57       C83       -1
    x57       C127      -1
    x57       C170      -1
    x60       __OBJ___  484
    x60       C99       -1
    x60       C268      -1
    x61       __OBJ___  979
    x61       C38       -1
    x61       C40       -1
    x61       C220      -1
    x61       C365      -1
    x62       __OBJ___  773
    x62       C46       -1
    x62       C138      -1
    x62       C202      -1
    x67       __OBJ___  567
    x67       C154      -1
    x67       C238      -1
    x70       __OBJ___  832
    x70       C71       -1
    x70       C161      -1
    x70       C258      -1
    x70       C264      -1
    x70       C312      -1
    x70       C359      -1
    x80       __OBJ___  616
    x80       C91       -1
    x80       C248      -1
    x80       C396      -1
    x81       __OBJ___  599
    x81       C108      -1
    x81       C163      -1
    x81       C283      -1
    x81       C335      -1
    x83       __OBJ___  342
    x83       C35       -1
    x83       C165      -1
    x83       C345      -1
    x84       __OBJ___  183
    x84       C23       -1
    x84       C34       -1
    x84       C95       -1
    x84       C266      -1
    x84       C285      -1
    x89       __OBJ___  134
    x89       C216      -1
    x89       C236      -1
    x89       C288      -1
    x89       C341      -1
    x89       C397      -1
    x90       __OBJ___  895
    x90       C112      -1
    x90       C191      -1
    x90       C209      -1
    x90       C227      -1
    x91       __OBJ___  367
    x91       C171      -1
    x91       C233      -1
    x91       C287      -1
    x91       C303      -1
    x92       __OBJ___  655
    x92       C210      -1
    x92       C239      -1
    x92       C296      -1
    x95       __OBJ___  796
    x95       C246      -1
    x95       C256      -1
    x95       C278      -1
    x95       C398      -1
    x96       __OBJ___  640
    x96       C15       -1
    x96       C85       -1
    x96       C132      -1
    x101      __OBJ___  435
    x101      C40       -1
    x101      C116      -1
    x101      C224      -1
    x101      C266      -1
    x101      C278      -1
    x101      C342      -1
    x107      __OBJ___  420
    x107      C269      -1
    x107      C349      -1
    x110      __OBJ___  596
    x110      C107      -1
    x110      C335      -1
    x110      C391      -1
    x118      __OBJ___  309
    x118      C48       -1
    x118      C133      -1
    x118      C243      -1
    x119      __OBJ___  220
    x119      C32       -1
    x119      C149      -1
    x119      C165      -1
    x120      __OBJ___  289
    x120      C4        -1
    x120      C294      -1
    x121      __OBJ___  889
    x121      C93       -1
    x121      C227      -1
    x121      C306      -1
    x122      __OBJ___  276
    x122      C71       -1
    x122      C84       -1
    x122      C95       -1
    x122      C127      -1
    x122      C381      -1
    x123      __OBJ___  156
    x123      C32       -1
    x124      __OBJ___  657
    x124      C177      -1
    x124      C269      -1
    x126      __OBJ___  635
    x126      C46       -1
    x126      C228      -1
    x126      C242      -1
    x127      __OBJ___  146
    x127      C287      -1
    x128      __OBJ___  757
    x128      C112      -1
    x128      C181      -1
    x128      C210      -1
    x132      __OBJ___  578
    x132      C60       -1
    x132      C244      -1
    x132      C274      -1
    x135      __OBJ___  159
    x135      C40       -1
    x135      C275      -1
    x135      C390      -1
    x138      __OBJ___  326
    x138      C85       -1
    x138      C114      -1
    x138      C231      -1
    x138      C296      -1
    x138      C318      -1
    x140      __OBJ___  628
    x140      C76       -1
    x140      C201      -1
    x140      C365      -1
    x140      C366      -1
    x141      __OBJ___  206
    x141      C99       -1
    x146      __OBJ___  147
    x146      C73       -1
    x146      C126      -1
    x147      __OBJ___  642
    x147      C50       -1
    x147      C202      -1
    x147      C231      -1
    x147      C323      -1
    x147      C333      -1
    x147      C376      -1
    x149      __OBJ___  510
    x149      C13       -1
    x149      C138      -1
    x149      C246      -1
    x150      __OBJ___  34
    x150      C278      -1
    x150      C343      -1
    x151      __OBJ___  436
    x151      C38       -1
    x151      C83       -1
    x151      C235      -1
    x151      C278      -1
    x152      __OBJ___  438
    x152      C285      -1
    x152      C346      -1
    x153      __OBJ___  270
    x153      C34       -1
    x153      C63       -1
    x154      __OBJ___  562
    x154      C53       -1
    x154      C166      -1
    x154      C390      -1
    x155      __OBJ___  266
    x155      C211      -1
    x155      C228      -1
    x155      C273      -1
    x156      __OBJ___  59
    x156      C13       -1
    x156      C265      -1
    x157      __OBJ___  447
    x157      C121      -1
    x157      C379      -1
    x158      __OBJ___  746
    x158      C44       -1
    x158      C110      -1
    x158      C246      -1
    x158      C302      -1
    x160      __OBJ___  313
    x160      C4        -1
    x160      C85       -1
    x160      C270      -1
    x162      __OBJ___  77
    x162      C82       -1
    x162      C282      -1
    x163      __OBJ___  777
    x163      C289      -1
    x163      C374      -1
    x166      __OBJ___  989
    x166      C238      -1
    x166      C244      -1
    x167      __OBJ___  204
    x167      C235      -1
    x167      C287      -1
    x167      C354      -1
    x168      __OBJ___  849
    x168      C44       -1
    x168      C75       -1
    x168      C181      -1
    x168      C231      -1
    x168      C271      -1
    x168      C374      -1
    x169      __OBJ___  146
    x169      C234      -1
    x169      C302      -1
    x169      C395      -1
    x170      __OBJ___  615
    x170      C35       -1
    x170      C39       -1
    x170      C127      -1
    x170      C260      -1
    x172      __OBJ___  592
    x172      C163      -1
    x172      C201      -1
    x172      C399      -1
    x175      __OBJ___  754
    x175      C8        -1
    x175      C260      -1
    x175      C397      -1
    x176      __OBJ___  130
    x176      C127      -1
    x176      C270      -1
    x176      C365      -1
    x178      __OBJ___  398
    x178      C271      -1
    x178      C359      -1
    x185      __OBJ___  240
    x185      C201      -1
    x186      __OBJ___  833
    x186      C375      -1
    x186      C399      -1
    x188      __OBJ___  205
    x188      C17       -1
    x188      C151      -1
    x189      __OBJ___  650
    x189      C42       -1
    x189      C44       -1
    x190      __OBJ___  313
    x190      C343      -1
    x190      C347      -1
    x191      __OBJ___  80
    x191      C52       -1
    x191      C114      -1
    x191      C130      -1
    x191      C175      -1
    x191      C337      -1
    x192      __OBJ___  906
    x192      C83       -1
    x192      C151      -1
    x192      C255      -1
    x192      C258      -1
    x193      __OBJ___  250
    x193      C75       -1
    x193      C375      -1
    x195      __OBJ___  684
    x195      C89       -1
    x195      C152      -1
    x195      C297      -1
    x196      __OBJ___  115
    x196      C53       -1
    x196      C167      -1
    x196      C175      -1
    x196      C306      -1
    x196      C381      -1
    x198      __OBJ___  429
    x198      C70       -1
    x198      C110      -1
    x198      C375      -1
    x201      __OBJ___  479
    x201      C170      -1
    x201      C319      -1
    x201      C343      -1
    x201      C382      -1
    x203      __OBJ___  865
    x203      C232      -1
    x203      C264      -1
    x204      __OBJ___  507
    x204      C108      -1
    x204      C306      -1
    x204      C349      -1
    x209      __OBJ___  403
    x209      C124      -1
    x209      C259      -1
    x209      C363      -1
    x212      __OBJ___  764
    x212      C289      -1
    x212      C342      -1
    x213      __OBJ___  109
    x213      C17       -1
    x213      C133      -1
    x213      C368      -1
    x214      __OBJ___  1
    x214      C256      -1
    x217      __OBJ___  427
    x217      C99       -1
    x217      C246      -1
    x218      __OBJ___  267
    x218      C32       -1
    x218      C251      -1
    x219      __OBJ___  852
    x219      C26       -1
    x219      C224      -1
    x219      C239      -1
    x219      C346      -1
    x221      __OBJ___  917
    x221      C110      -1
    x221      C201      -1
    x221      C227      -1
    x224      __OBJ___  363
    x224      C130      -1
    x224      C177      -1
    x224      C201      -1
    x224      C217      -1
    x224      C266      -1
    x232      __OBJ___  783
    x232      C17       -1
    x232      C143      -1
    x232      C233      -1
    x233      __OBJ___  813
    x233      C171      -1
    x233      C379      -1
    x234      __OBJ___  600
    x234      C75       -1
    x234      C127      -1
    x234      C347      -1
    x234      C366      -1
    x238      __OBJ___  707
    x238      C163      -1
    x238      C337      -1
    x238      C339      -1
    x238      C376      -1
    x241      __OBJ___  426
    x241      C185      -1
    x241      C297      -1
    x242      __OBJ___  214
    x242      C258      -1
    x242      C396      -1
    x242      C397      -1
    x244      __OBJ___  245
    x244      C23       -1
    x244      C84       -1
    x244      C259      -1
    x244      C328      -1
    x245      __OBJ___  266
    x245      C242      -1
    x245      C285      -1
    x245      C312      -1
    x245      C337      -1
    x249      __OBJ___  581
    x249      C73       -1
    x249      C222      -1
    x249      C239      -1
    x251      __OBJ___  726
    x251      C252      -1
    x251      C303      -1
    x254      __OBJ___  520
    x254      C75       -1
    x254      C116      -1
    x254      C236      -1
    x254      C337      -1
    x254      C339      -1
    x254      C390      -1
    x255      __OBJ___  259
    x255      C15       -1
    x255      C236      -1
    x256      __OBJ___  84
    x256      C17       -1
    x256      C95       -1
    x256      C333      -1
    x257      __OBJ___  117
    x257      C204      -1
    x257      C363      -1
    x260      __OBJ___  392
    x260      C34       -1
    x260      C143      -1
    x260      C345      -1
    x263      __OBJ___  146
    x263      C241      -1
    x263      C290      -1
    x264      __OBJ___  330
    x264      C2        -1
    x264      C229      -1
    x264      C349      -1
    x266      __OBJ___  987
    x266      C113      -1
    x266      C219      -1
    x266      C260      -1
    x268      __OBJ___  452
    x268      C63       -1
    x268      C151      -1
    x273      __OBJ___  302
    x273      C112      -1
    x273      C390      -1
    x274      __OBJ___  450
    x274      C44       -1
    x274      C48       -1
    x274      C376      -1
    x275      __OBJ___  228
    x275      C151      -1
    x275      C155      -1
    x276      __OBJ___  190
    x276      C155      -1
    x278      __OBJ___  770
    x278      C69       -1
    x278      C127      -1
    x278      C294      -1
    x278      C343      -1
    x278      C379      -1
    x282      __OBJ___  209
    x282      C133      -1
    x282      C181      -1
    x282      C341      -1
    x282      C366      -1
    x283      __OBJ___  37
    x283      C13       -1
    x283      C72       -1
    x283      C204      -1
    x283      C328      -1
    x284      __OBJ___  6
    x284      C376      -1
    x285      __OBJ___  245
    x285      C119      -1
    x285      C303      -1
    x286      __OBJ___  297
    x286      C91       -1
    x287      __OBJ___  333
    x287      C84       -1
    x287      C287      -1
    x288      __OBJ___  452
    x288      C26       -1
    x288      C323      -1
    x288      C351      -1
    x293      __OBJ___  54
    x293      C243      -1
    x293      C288      -1
    x294      __OBJ___  472
    x294      C202      -1
    x294      C259      -1
    x294      C379      -1
    x296      __OBJ___  435
    x296      C135      -1
    x296      C330      -1
    x296      C396      -1
    x300      __OBJ___  455
    x300      C91       -1
    x300      C122      -1
    x300      C268      -1
    x301      __OBJ___  54
    x301      C57       -1
    x301      C274      -1
    x301      C391      -1
    x302      __OBJ___  76
    x302      C119      -1
    x302      C204      -1
    x302      C333      -1
    x304      __OBJ___  380
    x304      C13       -1
    x304      C70       -1
    x304      C116      -1
    x304      C138      -1
    x304      C395      -1
    x305      __OBJ___  70
    x305      C119      -1
    x305      C133      -1
    x305      C216      -1
    x306      __OBJ___  600
    x306      C166      -1
    x306      C256      -1
    x306      C267      -1
    x311      __OBJ___  168
    x311      C73       -1
    x311      C116      -1
    x312      __OBJ___  619
    x312      C76       -1
    x312      C254      -1
    x312      C258      -1
    x313      __OBJ___  93
    x313      C8        -1
    x313      C341      -1
    x314      __OBJ___  49
    x314      C94       -1
    x314      C274      -1
    x314      C371      -1
    x321      __OBJ___  61
    x321      C73       -1
    x321      C366      -1
    x322      __OBJ___  126
    x322      C60       -1
    x322      C100      -1
    x326      __OBJ___  251
    x326      C4        -1
    x326      C133      -1
    x326      C146      -1
    x326      C283      -1
    x326      C358      -1
    x326      C382      -1
    x327      __OBJ___  464
    x327      C251      -1
    x327      C277      -1
    x328      __OBJ___  243
    x328      C12       -1
    x328      C224      -1
    x328      C395      -1
    x329      __OBJ___  862
    x329      C87       -1
    x329      C243      -1
    x329      C248      -1
    x329      C323      -1
    x330      __OBJ___  497
    x330      C191      -1
    x330      C216      -1
    x331      __OBJ___  89
    x331      C181      -1
    x332      __OBJ___  466
    x332      C60       -1
    x332      C154      -1
    x332      C328      -1
    x334      __OBJ___  854
    x334      C4        -1
    x334      C374      -1
    x336      __OBJ___  272
    x336      C303      -1
    x336      C333      -1
    x336      C358      -1
    x337      __OBJ___  689
    x337      C1        -1
    x337      C210      -1
    x337      C339      -1
    x341      __OBJ___  407
    x341      C32       -1
    x341      C75       -1
    x341      C255      -1
    x344      __OBJ___  178
    x344      C87       -1
    x344      C158      -1
    x346      __OBJ___  528
    x346      C268      -1
    x346      C294      -1
    x348      __OBJ___  564
    x348      C108      -1
    x348      C238      -1
    x351      __OBJ___  583
    x351      C4        -1
    x351      C34       -1
    x351      C256      -1
    x351      C390      -1
    x355      __OBJ___  976
    x355      C61       -1
    x355      C143      -1
    x355      C249      -1
    x356      __OBJ___  330
    x356      C204      -1
    x356      C220      -1
    x356      C258      -1
    x358      __OBJ___  525
    x358      C238      -1
    x358      C398      -1
    x361      __OBJ___  420
    x361      C264      -1
    x361      C312      -1
    x362      __OBJ___  246
    x362      C71       -1
    x362      C107      -1
    x362      C122      -1
    x364      __OBJ___  211
    x364      C110      -1
    x364      C271      -1
    x365      __OBJ___  83
    x365      C110      -1
    x366      __OBJ___  288
    x366      C28       -1
    x366      C165      -1
    x366      C266      -1
    x366      C323      -1
    x368      __OBJ___  368
    x368      C146      -1
    x368      C246      -1
    x371      __OBJ___  284
    x371      C222      -1
    x371      C282      -1
    x373      __OBJ___  193
    x373      C303      -1
    x374      __OBJ___  92
    x374      C135      -1
    x374      C241      -1
    x376      __OBJ___  83
    x376      C95       -1
    x376      C228      -1
    x380      __OBJ___  311
    x380      C53       -1
    x380      C275      -1
    x380      C333      -1
    x382      __OBJ___  150
    x382      C40       -1
    x382      C208      -1
    x384      __OBJ___  862
    x384      C155      -1
    x384      C158      -1
    x384      C185      -1
    x384      C251      -1
    x387      __OBJ___  129
    x387      C69       -1
    x387      C165      -1
    x387      C337      -1
    x390      __OBJ___  454
    x390      C146      -1
    x390      C150      -1
    x390      C231      -1
    x390      C302      -1
    x394      __OBJ___  890
    x394      C209      -1
    x394      C376      -1
    x396      __OBJ___  884
    x396      C38       -1
    x396      C175      -1
    x396      C335      -1
    x398      __OBJ___  499
    x398      C44       -1
    x398      C119      -1
    x398      C167      -1
    x398      C278      -1
    x400      __OBJ___  69
    x400      C82       -1
    x400      C132      -1
    x400      C161      -1
    MARKER    'MARKER'                 'INTEND'
RHS
    RHS       __OBJ___  -19024
    RHS       C1        -1
    RHS       C2        -1
    RHS       C4        -1
    RHS       C8        -1
    RHS       C12       -1
    RHS       C13       -1
    RHS       C15       -1
    RHS       C17       -1
    RHS       C23       -1
    RHS       C26       -1
    RHS       C28       -1
    RHS       C32       -1
    RHS       C34       -1
    RHS       C35       -1
    RHS       C38       -1
    RHS       C39       -1
    RHS       C40       -1
    RHS       C42       -1
    RHS       C44       -1
    RHS       C46       -1
    RHS       C48       -1
    RHS       C50       -1
    RHS       C52       -1
    RHS       C53       -1
    RHS       C57       -1
    RHS       C60       -1
    RHS       C61       -1
    RHS       C63       -1
    RHS       C69       -1
    RHS       C70       -1
    RHS       C71       -1
    RHS       C72       -1
    RHS       C73       -1
    RHS       C75       -1
    RHS       C76       -1
    RHS       C82       -1
    RHS       C83       -1
    RHS       C84       -1
    RHS       C85       -1
    RHS       C87       -1
    RHS       C89       -1
    RHS       C91       -1
    RHS       C93       -1
    RHS       C94       -1
    RHS       C95       -1
    RHS       C99       -1
    RHS       C100      -1
    RHS       C107      -1
    RHS       C108      -1
    RHS       C110      -1
    RHS       C112      -1
    RHS       C113      -1
    RHS       C114      -1
    RHS       C116      -1
    RHS       C119      -1
    RHS       C121      -1
    RHS       C122      -1
    RHS       C124      -1
    RHS       C126      -1
    RHS       C127      -1
    RHS       C130      -1
    RHS       C132      -1
    RHS       C133      -1
    RHS       C135      -1
    RHS       C138      -1
    RHS       C143      -1
    RHS       C146      -1
    RHS       C149      -1
    RHS       C150      -1
    RHS       C151      -1
    RHS       C152      -1
    RHS       C154      -1
    RHS       C155      -1
    RHS       C158      -1
    RHS       C161      -1
    RHS       C163      -1
    RHS       C165      -1
    RHS       C166      -1
    RHS       C167      -1
    RHS       C170      -1
    RHS       C171      -1
    RHS       C175      -1
    RHS       C177      -1
    RHS       C181      -1
    RHS       C185      -1
    RHS       C191      -1
    RHS       C201      -1
    RHS       C202      -1
    RHS       C204      -1
    RHS       C208      -1
    RHS       C209      -1
    RHS       C210      -1
    RHS       C211      -1
    RHS       C216      -1
    RHS       C217      -1
    RHS       C219      -1
    RHS       C220      -1
    RHS       C222      -1
    RHS       C224      -1
    RHS       C227      -1
    RHS       C228      -1
    RHS       C229      -1
    RHS       C231      -1
    RHS       C232      -1
    RHS       C233      -1
    RHS       C234      -1
    RHS       C235      -1
    RHS       C236      -1
    RHS       C238      -1
    RHS       C239      -1
    RHS       C241      -1
    RHS       C242      -1
    RHS       C243      -1
    RHS       C244      -1
    RHS       C246      -1
    RHS       C248      -1
    RHS       C249      -1
    RHS       C251      -1
    RHS       C252      -1
    RHS       C254      -1
    RHS       C255      -1
    RHS       C256      -1
    RHS       C258      -1
    RHS       C259      -1
    RHS       C260      -1
    RHS       C264      -1
    RHS       C265      -1
    RHS       C266      -1
    RHS       C267      -1
    RHS       C268      -1
    RHS       C269      -1
    RHS       C270      -1
    RHS       C271      -1
    RHS       C273      -1
    RHS       C274      -1
    RHS       C275      -1
    RHS       C277      -1
    RHS       C278      -1
    RHS       C282      -1
    RHS       C283      -1
    RHS       C285      -1
    RHS       C287      -1
    RHS       C288      -1
    RHS       C289      -1
    RHS       C290      -1
    RHS       C294      -1
    RHS       C296      -1
    RHS       C297      -1
    RHS       C302      -1
    RHS       C303      -1
    RHS       C306      -1
    RHS       C312      -1
    RHS       C318      -1
    RHS       C319      -1
    RHS       C323      -1
    RHS       C328      -1
    RHS       C330      -1
    RHS       C333      -1
    RHS       C335      -1
    RHS       C337      -1
    RHS       C339      -1
    RHS       C341      -1
    RHS       C342      -1
    RHS       C343      -1
    RHS       C345      -1
    RHS       C346      -1
    RHS       C347      -1
    RHS       C349      -1
    RHS       C351      -1
    RHS       C354      -1
    RHS       C358      -1
    RHS       C359      -1
    RHS       C363      -1
    RHS       C365      -1
    RHS       C366      -1
    RHS       C368      -1
    RHS       C371      -1
    RHS       C374      -1
    RHS       C375      -1
    RHS       C376      -1
    RHS       C379      -1
    RHS       C381      -1
    RHS       C382      -1
    RHS       C390      -1
    RHS       C391      -1
    RHS       C395      -1
    RHS       C396      -1
    RHS       C397      -1
    RHS       C398      -1
    RHS       C399      -1
BOUNDS
 UP BOUND     x3        1
 UP BOUND     x5        1
 UP BOUND     x7        1
 UP BOUND     x10       1
 UP BOUND     x11       1
 UP BOUND     x12       1
 UP BOUND     x14       1
 UP BOUND     x15       1
 UP BOUND     x17       1
 UP BOUND     x19       1
 UP BOUND     x21       1
 UP BOUND     x24       1
 UP BOUND     x25       1
 UP BOUND     x26       1
 UP BOUND     x28       1
 UP BOUND     x30       1
 UP BOUND     x33       1
 UP BOUND     x34       1
 UP BOUND     x35       1
 UP BOUND     x36       1
 UP BOUND     x38       1
 UP BOUND     x39       1
 UP BOUND     x40       1
 UP BOUND     x42       1
 UP BOUND     x43       1
 UP BOUND     x44       1
 UP BOUND     x48       1
 UP BOUND     x49       1
 UP BOUND     x50       1
 UP BOUND     x51       1
 UP BOUND     x52       1
 UP BOUND     x57       1
 UP BOUND     x60       1
 UP BOUND     x61       1
 UP BOUND     x62       1
 UP BOUND     x67       1
 UP BOUND     x70       1
 UP BOUND     x80       1
 UP BOUND     x81       1
 UP BOUND     x83       1
 UP BOUND     x84       1
 UP BOUND     x89       1
 UP BOUND     x90       1
 UP BOUND     x91       1
 UP BOUND     x92       1
 UP BOUND     x95       1
 UP BOUND     x96       1
 UP BOUND     x101      1
 UP BOUND     x107      1
 UP BOUND     x110      1
 UP BOUND     x118      1
 UP BOUND     x119      1
 UP BOUND     x120      1
 UP BOUND     x121      1
 UP BOUND     x122      1
 UP BOUND     x123      1
 UP BOUND     x124      1
 UP BOUND     x126      1
 UP BOUND     x127      1
 UP BOUND     x128      1
 UP BOUND     x132      1
 UP BOUND     x135      1
 UP BOUND     x138      1
 UP BOUND     x140      1
 UP BOUND     x141      1
 UP BOUND     x146      1
 UP BOUND     x147      1
 UP BOUND     x149      1
 UP BOUND     x150      1
 UP BOUND     x151      1
 UP BOUND     x152      1
 UP BOUND     x153      1
 UP BOUND     x154      1
 UP BOUND     x155      1
 UP BOUND     x156      1
 UP BOUND     x157      1
 UP BOUND     x158      1
 UP BOUND     x160      1
 UP BOUND     x162      1
 UP BOUND     x163      1
 UP BOUND     x166      1
 UP BOUND     x167      1
 UP BOUND     x168      1
 UP BOUND     x169      1
 UP BOUND     x170      1
 UP BOUND     x172      1
 UP BOUND     x175      1
 UP BOUND     x176      1
 UP BOUND     x178      1
 UP BOUND     x185      1
 UP BOUND     x186      1
 UP BOUND     x188      1
 UP BOUND     x189      1
 UP BOUND     x190      1
 UP BOUND     x191      1
 UP BOUND     x192      1
 UP BOUND     x193      1
 UP BOUND     x195      1
 UP BOUND     x196      1
 UP BOUND     x198      1
 UP BOUND     x201      1
 UP BOUND     x203      1
 UP BOUND     x204      1
 UP BOUND     x209      1
 UP BOUND     x212      1
 UP BOUND     x213      1
 UP BOUND     x214      1
 UP BOUND     x217      1
 UP BOUND     x218      1
 UP BOUND     x219      1
 UP BOUND     x221      1
 UP BOUND     x224      1
 UP BOUND     x232      1
 UP BOUND     x233      1
 UP BOUND     x234      1
 UP BOUND     x238      1
 UP BOUND     x241      1
 UP BOUND     x242      1
 UP BOUND     x244      1
 UP BOUND     x245      1
 UP BOUND     x249      1
 UP BOUND     x251      1
 UP BOUND     x254      1
 UP BOUND     x255      1
 UP BOUND     x256      1
 UP BOUND     x257      1
 UP BOUND     x260      1
 UP BOUND     x263      1
 UP BOUND     x264      1
 UP BOUND     x266      1
 UP BOUND     x268      1
 UP BOUND     x273      1
 UP BOUND     x274      1
 UP BOUND     x275      1
 UP BOUND     x276      1
 UP BOUND     x278      1
 UP BOUND     x282      1
 UP BOUND     x283      1
 UP BOUND     x284      1
 UP BOUND     x285      1
 UP BOUND     x286      1
 UP BOUND     x287      1
 UP BOUND     x288      1
 UP BOUND     x293      1
 UP BOUND     x294      1
 UP BOUND     x296      1
 UP BOUND     x300      1
 UP BOUND     x301      1
 UP BOUND     x302      1
 UP BOUND     x304      1
 UP BOUND     x305      1
 UP BOUND     x306      1
 UP BOUND     x311      1
 UP BOUND     x312      1
 UP BOUND     x313      1
 UP BOUND     x314      1
 UP BOUND     x321      1
 UP BOUND     x322      1
 UP BOUND     x326      1
 UP BOUND     x327      1
 UP BOUND     x328      1
 UP BOUND     x329      1
 UP BOUND     x330      1
 UP BOUND     x331      1
 UP BOUND     x332      1
 UP BOUND     x334      1
 UP BOUND     x336      1
 UP BOUND     x337      1
 UP BOUND     x341      1
 UP BOUND     x344      1
 UP BOUND     x346      1
 UP BOUND     x348      1
 UP BOUND     x351      1
 UP BOUND     x355      1
 UP BOUND     x356      1
 UP BOUND     x358      1
 UP BOUND     x361      1
 UP BOUND     x362      1
 UP BOUND     x364      1
 UP BOUND     x365      1
 UP BOUND     x366      1
 UP BOUND     x368      1
 UP BOUND     x371      1
 UP BOUND     x373      1
 UP BOUND     x374      1
 UP BOUND     x376      1
 UP BOUND     x380      1
 UP BOUND     x382      1
 UP BOUND     x384      1
 UP BOUND     x387      1
 UP BOUND     x390      1
 UP BOUND     x394      1
 UP BOUND     x396      1
 UP BOUND     x398      1
 UP BOUND     x400      1
ENDATA
